matrix = [|
  6, 15, 19, 26, 18, 31, 8, 32, 33, 22, 2, 13, 34, 9, 0, 0, 0, 0, 0, 0, 0, 0, 0, 0, 0, 0, 0, 0, 0, 0, 0, 0, 0, 0, 0 |
  15, 8, 25, 34, 33, 23, 26, 19, 18, 4, 27, 1, 20, 10, 12, 30, 9, 11, 13, 0, 0, 0, 0, 0, 0, 0, 0, 0, 0, 0, 0, 0, 0, 0, 0 |
  5, 1, 6, 9, 30, 16, 14, 15, 12, 8, 13, 33, 2, 28, 20, 32, 26, 34, 4, 3, 17, 0, 0, 0, 0, 0, 0, 0, 0, 0, 0, 0, 0, 0, 0 |
  15, 4, 27, 33, 7, 14, 10, 13, 17, 9, 31, 1, 23, 20, 12, 18, 21, 0, 0, 0, 0, 0, 0, 0, 0, 0, 0, 0, 0, 0, 0, 0, 0, 0, 0 |
  13, 23, 29, 21, 11, 18, 17, 5, 24, 0, 0, 0, 0, 0, 0, 0, 0, 0, 0, 0, 0, 0, 0, 0, 0, 0, 0, 0, 0, 0, 0, 0, 0, 0, 0 |
  9, 20, 19, 8, 24, 13, 22, 2, 10, 11, 0, 0, 0, 0, 0, 0, 0, 0, 0, 0, 0, 0, 0, 0, 0, 0, 0, 0, 0, 0, 0, 0, 0, 0, 0 |
  33, 27, 18, 30, 22, 26, 25, 24, 12, 6, 20, 10, 5, 3, 4, 1, 8, 0, 0, 0, 0, 0, 0, 0, 0, 0, 0, 0, 0, 0, 0, 0, 0, 0, 0 |
  6, 1, 4, 24, 30, 5, 3, 33, 17, 23, 8, 2, 18, 15, 10, 22, 20, 16, 19, 27, 25, 0, 0, 0, 0, 0, 0, 0, 0, 0, 0, 0, 0, 0, 0 |
  22, 18, 27, 11, 8, 28, 4, 0, 0, 0, 0, 0, 0, 0, 0, 0, 0, 0, 0, 0, 0, 0, 0, 0, 0, 0, 0, 0, 0, 0, 0, 0, 0, 0, 0 |
  2, 3, 30, 19, 1, 15, 16, 18, 26, 32, 27, 13, 9, 6, 12, 35, 31, 21, 29, 0, 0, 0, 0, 0, 0, 0, 0, 0, 0, 0, 0, 0, 0, 0, 0 |
  1, 32, 10, 2, 33, 19, 25, 15, 23, 26, 34, 11, 17, 30, 20, 27, 22, 24, 5, 9, 29, 0, 0, 0, 0, 0, 0, 0, 0, 0, 0, 0, 0, 0, 0 |
  3, 30, 27, 20, 24, 32, 9, 34, 1, 5, 13, 18, 17, 26, 12, 19, 0, 0, 0, 0, 0, 0, 0, 0, 0, 0, 0, 0, 0, 0, 0, 0, 0, 0, 0 |
  25, 17, 14, 7, 35, 33, 10, 15, 22, 30, 8, 13, 12, 0, 0, 0, 0, 0, 0, 0, 0, 0, 0, 0, 0, 0, 0, 0, 0, 0, 0, 0, 0, 0, 0 |
  10, 1, 6, 11, 33, 24, 16, 31, 23, 15, 17, 0, 0, 0, 0, 0, 0, 0, 0, 0, 0, 0, 0, 0, 0, 0, 0, 0, 0, 0, 0, 0, 0, 0, 0 |
  25, 32, 4, 16, 6, 29, 9, 20, 23, 13, 30, 34, 10, 5, 22, 18, 15, 27, 0, 0, 0, 0, 0, 0, 0, 0, 0, 0, 0, 0, 0, 0, 0, 0, 0 |
  30, 8, 25, 19, 4, 33, 6, 10, 5, 9, 22, 21, 15, 0, 0, 0, 0, 0, 0, 0, 0, 0, 0, 0, 0, 0, 0, 0, 0, 0, 0, 0, 0, 0, 0 |
  19, 26, 17, 5, 13, 32, 23, 31, 20, 24, 1, 15, 0, 0, 0, 0, 0, 0, 0, 0, 0, 0, 0, 0, 0, 0, 0, 0, 0, 0, 0, 0, 0, 0, 0 |
  13, 34, 20, 29, 32, 18, 26, 2, 3, 12, 10, 5, 31, 19, 23, 33, 24, 30, 15, 27, 0, 0, 0, 0, 0, 0, 0, 0, 0, 0, 0, 0, 0, 0, 0 |
  24, 16, 20, 3, 33, 4, 5, 8, 11, 0, 0, 0, 0, 0, 0, 0, 0, 0, 0, 0, 0, 0, 0, 0, 0, 0, 0, 0, 0, 0, 0, 0, 0, 0, 0 |
  4, 10, 29, 32, 23, 24, 19, 31, 30, 20, 13, 9, 11, 25, 22, 3, 18, 15, 0, 0, 0, 0, 0, 0, 0, 0, 0, 0, 0, 0, 0, 0, 0, 0, 0 |
  15, 20, 25, 1, 12, 7, 2, 33, 16, 5, 17, 13, 23, 21, 18, 35, 10, 3, 34, 0, 0, 0, 0, 0, 0, 0, 0, 0, 0, 0, 0, 0, 0, 0, 0 |
  4, 32, 21, 12, 3, 20, 28, 25, 26, 8, 31, 0, 0, 0, 0, 0, 0, 0, 0, 0, 0, 0, 0, 0, 0, 0, 0, 0, 0, 0, 0, 0, 0, 0, 0 |
  28, 23, 14, 13, 30, 27, 12, 2, 17, 1, 35, 22, 26, 9, 21, 32, 10, 20, 18, 31, 0, 0, 0, 0, 0, 0, 0, 0, 0, 0, 0, 0, 0, 0, 0 |
  19, 6, 25, 7, 18, 28, 14, 0, 0, 0, 0, 0, 0, 0, 0, 0, 0, 0, 0, 0, 0, 0, 0, 0, 0, 0, 0, 0, 0, 0, 0, 0, 0, 0, 0 |
  29, 18, 30, 8, 19, 32, 12, 5, 28, 6, 35, 16, 15, 20, 2, 24, 33, 0, 0, 0, 0, 0, 0, 0, 0, 0, 0, 0, 0, 0, 0, 0, 0, 0, 0 |
  26, 33, 34, 19, 1, 11, 15, 30, 29, 10, 16, 25, 22, 7, 12, 20, 0, 0, 0, 0, 0, 0, 0, 0, 0, 0, 0, 0, 0, 0, 0, 0, 0, 0, 0 |
  24, 26, 14, 10, 28, 27, 18, 29, 17, 3, 7, 19, 9, 13, 34, 4, 12, 0, 0, 0, 0, 0, 0, 0, 0, 0, 0, 0, 0, 0, 0, 0, 0, 0, 0 |
  15, 24, 29, 2, 8, 11, 27, 5, 33, 0, 0, 0, 0, 0, 0, 0, 0, 0, 0, 0, 0, 0, 0, 0, 0, 0, 0, 0, 0, 0, 0, 0, 0, 0, 0 |
  6, 2, 24, 8, 30, 16, 23, 18, 15, 22, 1, 4, 9, 31, 19, 33, 10, 0, 0, 0, 0, 0, 0, 0, 0, 0, 0, 0, 0, 0, 0, 0, 0, 0, 0 |
  13, 6, 24, 5, 34, 20, 27, 12, 23, 26, 25, 22, 17, 29, 30, 16, 4, 2, 9, 15, 0, 0, 0, 0, 0, 0, 0, 0, 0, 0, 0, 0, 0, 0, 0 |
  11, 3, 15, 5, 9, 33, 4, 29, 27, 1, 26, 31, 16, 0, 0, 0, 0, 0, 0, 0, 0, 0, 0, 0, 0, 0, 0, 0, 0, 0, 0, 0, 0, 0, 0 |
  24, 29, 10, 20, 8, 3, 18, 19, 11, 2, 27, 26, 4, 23, 33, 25, 13, 30, 34, 0, 0, 0, 0, 0, 0, 0, 0, 0, 0, 0, 0, 0, 0, 0, 0 |
  1, 10, 16, 26, 17, 31, 3, 5, 8, 15, 24, 22, 27, 23, 0, 0, 0, 0, 0, 0, 0, 0, 0, 0, 0, 0, 0, 0, 0, 0, 0, 0, 0, 0, 0 |
  8, 3, 11, 19, 16, 10, 24, 0, 0, 0, 0, 0, 0, 0, 0, 0, 0, 0, 0, 0, 0, 0, 0, 0, 0, 0, 0, 0, 0, 0, 0, 0, 0, 0, 0 |
  26, 17, 2, 22, 13, 10, 5, 20, 29, 19, 9, 32, 3, 0, 0, 0, 0, 0, 0, 0, 0, 0, 0, 0, 0, 0, 0, 0, 0, 0, 0, 0, 0, 0, 0 |
  13, 34, 33, 3, 27, 8, 26, 10, 1, 30, 22, 32, 0, 0, 0, 0, 0, 0, 0, 0, 0, 0, 0, 0, 0, 0, 0, 0, 0, 0, 0, 0, 0, 0, 0 |
  12, 23, 6, 30, 2, 25, 16, 31, 13, 8, 15, 19, 17, 32, 1, 0, 0, 0, 0, 0, 0, 0, 0, 0, 0, 0, 0, 0, 0, 0, 0, 0, 0, 0, 0 |
  2, 26, 31, 17, 15, 22, 34, 4, 24, 19, 16, 7, 33, 35, 0, 0, 0, 0, 0, 0, 0, 0, 0, 0, 0, 0, 0, 0, 0, 0, 0, 0, 0, 0, 0 |
  33, 7, 1, 30, 21, 9, 24, 34, 27, 25, 16, 22, 15, 18, 8, 4, 10, 13, 20, 5, 3, 0, 0, 0, 0, 0, 0, 0, 0, 0, 0, 0, 0, 0, 0 |
  14, 9, 31, 16, 34, 15, 12, 35, 21, 24, 28, 33, 0, 0, 0, 0, 0, 0, 0, 0, 0, 0, 0, 0, 0, 0, 0, 0, 0, 0, 0, 0, 0, 0, 0 |
  6, 3, 30, 27, 11, 23, 2, 31, 1, 0, 0, 0, 0, 0, 0, 0, 0, 0, 0, 0, 0, 0, 0, 0, 0, 0, 0, 0, 0, 0, 0, 0, 0, 0, 0 |
  33, 24, 1, 15, 18, 8, 23, 26, 2, 30, 32, 27, 20, 34, 11, 0, 0, 0, 0, 0, 0, 0, 0, 0, 0, 0, 0, 0, 0, 0, 0, 0, 0, 0, 0 |
  5, 32, 27, 25, 10, 22, 3, 2, 17, 33, 0, 0, 0, 0, 0, 0, 0, 0, 0, 0, 0, 0, 0, 0, 0, 0, 0, 0, 0, 0, 0, 0, 0, 0, 0 |
  19, 6, 30, 28, 13, 33, 7, 16, 4, 29, 23, 21, 14, 26, 12, 25, 9, 17, 0, 0, 0, 0, 0, 0, 0, 0, 0, 0, 0, 0, 0, 0, 0, 0, 0 |
  30, 1, 20, 27, 32, 6, 13, 18, 5, 15, 19, 12, 0, 0, 0, 0, 0, 0, 0, 0, 0, 0, 0, 0, 0, 0, 0, 0, 0, 0, 0, 0, 0, 0, 0 |
  9, 18, 34, 17, 3, 26, 19, 14, 28, 24, 0, 0, 0, 0, 0, 0, 0, 0, 0, 0, 0, 0, 0, 0, 0, 0, 0, 0, 0, 0, 0, 0, 0, 0, 0 |
  34, 11, 27, 16, 14, 1, 29, 2, 13, 17, 22, 0, 0, 0, 0, 0, 0, 0, 0, 0, 0, 0, 0, 0, 0, 0, 0, 0, 0, 0, 0, 0, 0, 0, 0 |
  34, 16, 33, 6, 26, 9, 25, 0, 0, 0, 0, 0, 0, 0, 0, 0, 0, 0, 0, 0, 0, 0, 0, 0, 0, 0, 0, 0, 0, 0, 0, 0, 0, 0, 0 |
  1, 12, 30, 8, 5, 4, 6, 3, 26, 29, 18, 10, 15, 9, 20, 23, 0, 0, 0, 0, 0, 0, 0, 0, 0, 0, 0, 0, 0, 0, 0, 0, 0, 0, 0 |
  15, 10, 16, 11, 26, 22, 24, 8, 19, 29, 5, 20, 17, 4, 30, 13, 9, 1, 0, 0, 0, 0, 0, 0, 0, 0, 0, 0, 0, 0, 0, 0, 0, 0, 0 |
  2, 10, 28, 27, 13, 25, 19, 23, 32, 15, 1, 17, 31, 3, 21, 33, 4, 29, 14, 35, 5, 0, 0, 0, 0, 0, 0, 0, 0, 0, 0, 0, 0, 0, 0 |
  30, 4, 25, 27, 18, 1, 3, 16, 0, 0, 0, 0, 0, 0, 0, 0, 0, 0, 0, 0, 0, 0, 0, 0, 0, 0, 0, 0, 0, 0, 0, 0, 0, 0, 0 |
  15, 33, 13, 8, 5, 23, 32, 29, 11, 3, 25, 6, 17, 12, 24, 2, 4, 0, 0, 0, 0, 0, 0, 0, 0, 0, 0, 0, 0, 0, 0, 0, 0, 0, 0 |
  23, 19, 29, 31, 8, 24, 4, 0, 0, 0, 0, 0, 0, 0, 0, 0, 0, 0, 0, 0, 0, 0, 0, 0, 0, 0, 0, 0, 0, 0, 0, 0, 0, 0, 0 |
  34, 2, 15, 10, 32, 8, 33, 24, 16, 29, 27, 3, 17, 30, 11, 19, 22, 0, 0, 0, 0, 0, 0, 0, 0, 0, 0, 0, 0, 0, 0, 0, 0, 0, 0 |
  20, 17, 23, 16, 9, 33, 4, 13, 8, 11, 0, 0, 0, 0, 0, 0, 0, 0, 0, 0, 0, 0, 0, 0, 0, 0, 0, 0, 0, 0, 0, 0, 0, 0, 0 |
  10, 3, 1, 13, 6, 34, 14, 29, 22, 33, 17, 28, 16, 0, 0, 0, 0, 0, 0, 0, 0, 0, 0, 0, 0, 0, 0, 0, 0, 0, 0, 0, 0, 0, 0 |
  19, 16, 4, 5, 24, 12, 15, 30, 34, 10, 20, 29, 26, 8, 9, 31, 17, 0, 0, 0, 0, 0, 0, 0, 0, 0, 0, 0, 0, 0, 0, 0, 0, 0, 0 |
  25, 19, 16, 9, 11, 4, 3, 30, 20, 26, 0, 0, 0, 0, 0, 0, 0, 0, 0, 0, 0, 0, 0, 0, 0, 0, 0, 0, 0, 0, 0, 0, 0, 0, 0 |
  2, 4, 22, 19, 32, 31, 23, 6, 0, 0, 0, 0, 0, 0, 0, 0, 0, 0, 0, 0, 0, 0, 0, 0, 0, 0, 0, 0, 0, 0, 0, 0, 0, 0, 0 |
  9, 5, 6, 15, 22, 17, 25, 8, 26, 20, 0, 0, 0, 0, 0, 0, 0, 0, 0, 0, 0, 0, 0, 0, 0, 0, 0, 0, 0, 0, 0, 0, 0, 0, 0 |
  31, 15, 16, 1, 4, 5, 24, 3, 27, 2, 12, 8, 10, 33, 34, 18, 6, 9, 0, 0, 0, 0, 0, 0, 0, 0, 0, 0, 0, 0, 0, 0, 0, 0, 0 |
  25, 15, 26, 34, 8, 11, 3, 22, 4, 31, 10, 19, 30, 20, 9, 1, 6, 33, 0, 0, 0, 0, 0, 0, 0, 0, 0, 0, 0, 0, 0, 0, 0, 0, 0 |
  27, 25, 9, 3, 30, 22, 20, 34, 16, 6, 26, 17, 8, 2, 5, 11, 4, 0, 0, 0, 0, 0, 0, 0, 0, 0, 0, 0, 0, 0, 0, 0, 0, 0, 0 |
  1, 16, 30, 24, 14, 22, 8, 35, 29, 17, 11, 25, 27, 20, 0, 0, 0, 0, 0, 0, 0, 0, 0, 0, 0, 0, 0, 0, 0, 0, 0, 0, 0, 0, 0 |
  10, 31, 16, 9, 25, 18, 12, 19, 17, 3, 4, 5, 0, 0, 0, 0, 0, 0, 0, 0, 0, 0, 0, 0, 0, 0, 0, 0, 0, 0, 0, 0, 0, 0, 0 |
  33, 11, 20, 24, 23, 22, 30, 1, 34, 7, 0, 0, 0, 0, 0, 0, 0, 0, 0, 0, 0, 0, 0, 0, 0, 0, 0, 0, 0, 0, 0, 0, 0, 0, 0 |
  10, 2, 23, 5, 9, 25, 20, 8, 15, 29, 34, 24, 13, 0, 0, 0, 0, 0, 0, 0, 0, 0, 0, 0, 0, 0, 0, 0, 0, 0, 0, 0, 0, 0, 0 |
|];
